c FILE /home/rafael/Documents/HappySet/MIHS/inputs/happygen/output/graph_d_regular_k3_p0.2_v50_20241127_082558.txt
c SOURCE This is a d-regular graph formed for the happy graph colouring problem.
c DESCRIPTION It was generated using the problem generator of Rhyd Lewis
c
c GRAPH STATS
c Seed                             = -659344168
c Number of Nodes                  = 50
c Number of colours k              = 3
c Number of pre-assignments        = 10
c Degree of all vertices           = 6
c Density                          = 0.122449
c 
c The degrees of nodes 1 to 50, respectively, are as follows 
c [6, 6, 6, 6, 6, 6, 6, 6, 6, 6, 6, 6, 6, 6, 6, 6, 6, 6, 6, 6, 6, 6, 6, 6, 6, 6, 
c  6, 6, 6, 6, 6, 6, 6, 6, 6, 6, 6, 6, 6, 6, 6, 6, 6, 6, 6, 6, 6, 6, 6, 6] 
c  
p edge 50 150 3
e 1 5
e 1 16
e 1 24
e 1 26
e 1 40
e 1 41
e 2 9
e 2 14
e 2 17
e 2 23
e 2 29
e 2 35
e 3 25
e 3 26
e 3 31
e 3 43
e 3 44
e 3 45
e 4 6
e 4 23
e 4 25
e 4 26
e 4 31
e 4 49
e 5 6
e 5 12
e 5 14
e 5 33
e 5 48
e 6 17
e 6 34
e 6 36
e 6 48
e 7 15
e 7 16
e 7 21
e 7 24
e 7 25
e 7 34
e 8 16
e 8 25
e 8 26
e 8 28
e 8 35
e 8 41
e 9 24
e 9 38
e 9 39
e 9 42
e 9 47
e 10 22
e 10 24
e 10 28
e 10 34
e 10 38
e 10 42
e 11 26
e 11 28
e 11 31
e 11 38
e 11 40
e 11 47
e 12 15
e 12 28
e 12 36
e 12 47
e 12 49
e 13 20
e 13 27
e 13 36
e 13 43
e 13 47
e 13 49
e 14 15
e 14 19
e 14 43
e 14 46
e 15 18
e 15 22
e 15 44
e 16 23
e 16 31
e 16 32
e 17 29
e 17 33
e 17 35
e 17 42
e 18 21
e 18 33
e 18 37
e 18 48
e 18 49
e 19 25
e 19 33
e 19 36
e 19 41
e 19 50
e 20 23
e 20 33
e 20 40
e 20 43
e 20 45
e 21 33
e 21 34
e 21 39
e 21 41
e 22 29
e 22 39
e 22 41
e 22 50
e 23 26
e 23 29
e 24 38
e 24 46
e 25 36
e 27 30
e 27 37
e 27 39
e 27 44
e 27 50
e 28 34
e 28 45
e 29 30
e 29 44
e 30 32
e 30 35
e 30 40
e 30 44
e 31 38
e 31 46
e 32 35
e 32 37
e 32 47
e 32 50
e 34 46
e 35 50
e 36 37
e 37 42
e 37 44
e 38 45
e 39 40
e 39 48
e 40 41
e 42 46
e 42 49
e 43 45
e 43 48
e 45 50
e 46 49
e 47 48
n 1 3
n 6 1
n 11 3
n 18 1
n 23 3
n 36 1
n 40 3
n 41 3
n 42 2
n 48 1
